p tw 2600 4040
1 2
1 157
3 4
3 158
5 6
5 159
7 8
7 160
9 10
9 121
9 122
11 12
11 122
11 123
13 14
13 161
15 16
15 133
15 134
17 18
17 134
17 135
19 20
19 162
21 22
21 163
23 24
23 164
25 26
25 148
25 149
27 28
27 149
27 150
29 30
29 165
31 32
31 166
33 34
33 136
33 137
35 36
35 137
35 138
37 38
37 167
39 40
39 168
41 42
41 169
43 44
43 170
45 46
45 171
47 48
47 124
47 125
49 50
49 125
49 126
51 52
51 172
53 54
53 173
55 56
55 139
55 140
57 58
57 140
57 141
59 60
59 174
61 62
61 175
63 64
63 127
63 128
65 66
65 128
65 129
67 68
67 176
69 70
69 177
71 72
71 145
71 146
73 74
73 146
73 147
75 76
75 178
77 78
77 179
79 80
79 180
81 82
81 181
83 84
83 182
85 86
85 142
85 143
87 88
87 143
87 144
89 90
89 183
91 92
91 184
93 94
93 130
93 131
95 96
95 131
95 132
97 98
97 185
99 100
99 186
101 102
101 187
103 104
103 151
103 152
105 106
105 152
105 153
107 108
107 188
109 110
109 154
109 155
111 112
111 155
111 156
113 114
113 189
115 116
115 190
117 118
117 191
119 120
119 192
121 122
121 193
121 194
122 123
123 229
124 125
124 233
125 126
126 200
126 201
127 128
127 196
127 197
128 129
129 235
130 131
130 206
130 207
131 132
132 238
133 134
133 215
133 216
134 135
135 230
136 137
136 232
137 138
138 202
138 203
139 140
139 234
140 141
141 209
141 210
142 143
142 227
142 228
143 144
144 237
145 146
145 217
145 218
146 147
147 236
148 149
148 231
149 150
150 220
150 221
151 152
151 239
152 153
153 223
153 224
154 155
154 240
155 156
156 212
156 213
157 259
157 260
158 260
158 261
159 214
159 215
160 385
160 386
161 323
161 324
162 194
162 195
163 302
163 303
164 487
164 488
165 269
165 270
166 199
166 200
167 251
167 252
168 208
168 209
169 265
169 266
170 266
170 267
171 221
171 222
172 245
172 246
173 203
173 204
174 254
174 255
175 495
175 496
176 226
176 227
177 391
177 392
178 205
178 206
179 379
179 380
180 318
180 319
181 197
181 198
182 332
182 333
183 218
183 219
184 311
184 312
185 241
185 242
186 242
186 243
187 211
187 212
188 272
188 273
189 275
189 276
190 224
190 225
191 507
191 508
192 339
192 340
193 194
193 281
194 195
195 257
195 258
196 197
196 292
197 198
198 294
199 200
199 285
200 201
201 244
201 245
202 203
202 250
202 251
203 204
204 290
205 206
205 263
205 264
206 207
207 296
208 209
208 287
209 210
210 253
210 254
211 212
211 298
212 213
213 274
213 275
214 215
214 280
215 216
216 283
217 218
217 293
218 219
219 278
219 279
220 221
220 268
220 269
221 222
222 288
223 224
223 271
223 272
224 225
225 301
226 227
226 248
226 249
227 228
228 295
229 282
230 256
230 257
231 284
232 286
233 289
234 291
235 247
235 248
236 262
236 263
237 277
237 278
238 297
239 299
240 300
241 242
241 333
241 334
242 243
243 359
244 245
244 350
245 246
246 308
246 309
247 248
247 353
248 249
249 306
249 307
250 251
250 303
250 304
251 252
252 346
253 254
253 352
254 255
255 317
255 318
256 257
256 320
256 321
257 258
258 344
259 260
259 341
260 261
261 326
261 327
262 263
262 354
263 264
264 315
264 316
265 266
265 348
266 267
267 329
267 330
268 269
268 324
268 325
269 270
270 345
271 272
271 312
271 313
272 273
273 360
274 275
274 361
275 276
276 338
276 339
277 278
277 335
277 336
278 279
279 357
280 342
281 327
281 328
282 426
282 427
283 343
284 453
284 454
285 321
285 322
286 438
286 439
287 347
288 349
289 305
289 306
290 351
291 314
291 315
292 330
292 331
293 309
293 310
294 355
295 356
296 358
297 424
297 425
298 336
298 337
299 456
299 457
300 445
300 446
301 362
302 303
302 364
302 365
303 304
304 405
305 306
305 407
306 307
307 390
307 391
308 309
308 369
308 370
309 310
310 414
311 312
311 382
311 383
312 313
313 419
314 315
314 409
315 316
316 378
316 379
317 318
317 411
318 319
319 416
320 321
320 403
321 322
322 367
322 368
323 324
323 402
324 325
325 404
326 327
326 400
327 328
328 401
329 330
329 387
329 388
330 331
331 412
332 333
332 394
332 395
333 334
334 418
335 336
335 417
336 337
337 376
337 377
338 339
338 396
338 397
339 340
340 422
341 399
342 384
342 385
343 511
343 512
344 363
344 364
345 366
345 367
346 372
346 373
347 373
347 374
348 406
349 388
349 389
350 408
351 370
351 371
352 410
353 413
354 415
355 393
355 394
356 520
356 521
357 381
357 382
358 502
358 503
359 375
359 376
360 420
361 421
362 397
362 398
363 364
363 463
364 365
365 427
365 428
366 367
366 429
366 430
367 368
368 465
369 370
369 439
369 440
370 371
371 469
372 373
372 441
372 442
373 374
374 467
375 376
375 444
375 445
376 377
377 479
378 379
378 474
379 380
380 423
380 424
381 382
381 477
382 383
383 448
383 449
384 385
384 460
385 386
386 432
386 433
387 388
387 454
387 455
388 389
389 468
390 391
390 472
391 392
392 450
392 451
393 394
393 476
394 395
395 436
395 437
396 397
396 457
396 458
397 398
398 481
399 568
399 569
400 459
401 461
402 462
403 433
403 434
404 464
405 466
406 571
406 572
407 430
407 431
408 547
408 548
409 442
409 443
410 559
410 560
411 470
412 471
413 435
413 436
414 473
415 447
415 448
416 475
417 451
417 452
418 478
419 480
420 551
420 552
421 580
421 581
422 482
423 424
423 483
423 484
424 425
425 539
426 427
426 523
427 428
428 486
428 487
429 430
429 527
430 431
431 517
431 518
432 433
432 489
432 490
433 434
434 524
435 436
435 532
436 437
437 519
437 520
438 439
438 493
438 494
439 440
440 531
441 442
441 528
442 443
443 499
443 500
444 445
444 540
445 446
446 541
447 448
447 534
448 449
449 501
449 502
450 451
450 513
450 514
451 452
452 537
453 454
453 526
454 455
455 530
456 457
456 505
456 506
457 458
458 542
459 744
459 745
460 522
461 490
461 491
462 510
462 511
463 525
464 633
464 634
465 492
465 493
466 621
466 622
467 529
468 516
468 517
469 498
469 499
470 738
470 739
471 496
471 497
472 533
473 514
473 515
474 535
475 484
475 485
476 536
477 538
478 725
478 726
479 504
479 505
480 636
480 637
481 543
482 508
482 509
483 484
483 560
483 561
484 485
485 596
486 487
486 587
487 488
488 574
488 575
489 490
489 569
489 570
490 491
491 583
492 493
492 589
493 494
494 545
494 546
495 496
495 572
495 573
496 497
497 594
498 499
498 553
498 554
499 500
500 593
501 502
501 599
502 503
503 550
503 551
504 505
504 601
505 506
506 563
506 564
507 508
507 581
507 582
508 509
509 604
510 511
510 585
511 512
512 556
512 557
513 514
513 548
513 549
514 515
515 595
516 517
516 577
516 578
517 518
518 591
519 520
519 597
520 521
521 565
521 566
522 686
522 687
523 584
524 586
525 544
525 545
526 588
527 557
527 558
528 575
528 576
529 680
529 681
530 590
531 592
532 578
532 579
533 698
533 699
534 554
534 555
535 677
535 678
536 669
536 670
537 598
538 562
538 563
539 600
540 566
540 567
541 602
542 603
543 696
543 697
544 545
544 644
545 546
546 620
546 621
547 548
547 609
547 610
548 549
549 654
550 551
550 614
550 615
551 552
552 662
553 554
553 652
554 555
555 630
555 631
556 557
556 617
556 618
557 558
558 647
559 560
559 624
559 625
560 561
561 655
562 563
562 658
563 564
564 635
564 636
565 566
565 626
565 627
566 567
567 660
568 569
568 641
569 570
570 642
571 572
571 650
572 573
573 653
574 575
574 646
575 576
576 649
577 578
577 651
578 579
579 612
579 613
580 581
580 639
580 640
581 582
582 663
583 605
583 606
584 606
584 607
585 643
586 618
586 619
587 645
588 632
588 633
589 648
590 750
590 751
591 608
591 609
592 729
592 730
593 623
593 624
594 611
594 612
595 629
595 630
596 656
597 657
598 627
598 628
599 659
600 615
600 616
601 661
602 638
602 639
603 759
603 760
604 664
605 606
605 665
605 666
606 607
607 703
608 609
608 711
609 610
610 672
610 673
611 612
611 668
611 669
612 613
613 714
614 615
614 678
614 679
615 616
616 719
617 618
617 687
617 688
618 619
619 704
620 621
620 708
621 622
622 674
622 675
623 624
623 712
624 625
625 681
625 682
626 627
626 699
626 700
627 628
628 718
629 630
629 689
629 690
630 631
631 716
632 633
632 706
633 634
634 692
634 693
635 636
635 721
636 637
637 695
637 696
638 639
638 723
639 640
640 684
640 685
641 701
642 702
643 807
643 808
644 666
644 667
645 786
645 787
646 705
647 707
648 671
648 672
649 709
650 710
651 693
651 694
652 675
652 676
653 713
654 715
655 717
656 802
656 803
657 816
657 817
658 690
658 691
659 795
659 796
660 720
661 683
661 684
662 722
663 724
664 823
664 824
665 666
665 765
666 667
667 741
667 742
668 669
668 776
669 670
670 778
671 672
671 769
672 673
673 728
673 729
674 675
674 734
674 735
675 676
676 774
677 678
677 747
677 748
678 679
679 780
680 681
680 771
681 682
682 737
682 738
683 684
683 782
684 685
685 758
685 759
686 687
686 764
687 688
688 767
689 690
689 777
690 691
691 762
691 763
692 693
692 752
692 753
693 694
694 772
695 696
695 755
695 756
696 697
697 785
698 699
698 732
698 733
699 700
700 779
701 743
701 744
702 869
702 870
703 766
704 740
704 741
705 971
705 972
706 768
707 753
707 754
708 770
709 735
709 736
710 749
710 750
711 773
712 775
713 979
713 980
714 731
714 732
715 875
715 876
716 746
716 747
717 863
717 864
718 761
718 762
719 781
720 726
720 727
721 783
722 756
722 757
723 784
724 991
724 992
725 726
725 817
725 818
726 727
727 843
728 729
728 834
729 730
730 792
730 793
731 732
731 837
732 733
733 790
733 791
734 735
734 787
734 788
735 736
736 830
737 738
737 836
738 739
739 801
739 802
740 741
740 804
740 805
741 742
742 828
743 744
743 825
744 745
745 810
745 811
746 747
746 838
747 748
748 799
748 800
749 750
749 832
750 751
751 813
751 814
752 753
752 808
752 809
753 754
754 829
755 756
755 796
755 797
756 757
757 844
758 759
758 845
759 760
760 822
760 823
761 762
761 819
761 820
762 763
763 841
764 826
765 811
765 812
766 910
766 911
767 827
768 937
768 938
769 805
769 806
770 922
770 923
771 831
772 833
773 789
773 790
774 835
775 798
775 799
776 814
776 815
777 793
777 794
778 839
779 840
780 842
781 908
781 909
782 820
782 821
783 940
783 941
784 929
784 930
785 846
786 787
786 848
786 849
787 788
788 889
789 790
789 891
790 791
791 874
791 875
792 793
792 853
792 854
793 794
794 898
795 796
795 866
795 867
796 797
797 903
798 799
798 893
799 800
800 862
800 863
801 802
801 895
802 803
803 900
804 805
804 887
805 806
806 851
806 852
807 808
807 886
808 809
809 888
810 811
810 884
811 812
812 885
813 814
813 871
813 872
814 815
815 896
816 817
816 878
816 879
817 818
818 902
819 820
819 901
820 821
821 860
821 861
822 823
822 880
822 881
823 824
824 906
825 883
826 868
826 869
827 995
827 996
828 847
828 848
829 850
829 851
830 856
830 857
831 857
831 858
832 890
833 872
833 873
834 892
835 854
835 855
836 894
837 897
838 899
839 877
839 878
840 1004
840 1005
841 865
841 866
842 986
842 987
843 859
843 860
844 904
845 905
846 881
846 882
847 848
847 947
848 849
849 911
849 912
850 851
850 913
850 914
851 852
852 949
853 854
853 923
853 924
854 855
855 953
856 857
856 925
856 926
857 858
858 951
859 860
859 928
859 929
860 861
861 963
862 863
862 958
863 864
864 907
864 908
865 866
865 961
866 867
867 932
867 933
868 869
868 944
869 870
870 916
870 917
871 872
871 938
871 939
872 873
873 952
874 875
874 956
875 876
876 934
876 935
877 878
877 960
878 879
879 920
879 921
880 881
880 941
880 942
881 882
882 965
883 1052
883 1053
884 943
885 945
886 946
887 917
887 918
888 948
889 950
890 1055
890 1056
891 914
891 915
892 1031
892 1032
893 926
893 927
894 1043
894 1044
895 954
896 955
897 919
897 920
898 957
899 931
899 932
900 959
901 935
901 936
902 962
903 964
904 1035
904 1036
905 1064
905 1065
906 966
907 908
907 967
907 968
908 909
909 1023
910 911
910 1007
911 912
912 970
912 971
913 914
913 1011
914 915
915 1001
915 1002
916 917
916 973
916 974
917 918
918 1008
919 920
919 1016
920 921
921 1003
921 1004
922 923
922 977
922 978
923 924
924 1015
925 926
925 1012
926 927
927 983
927 984
928 929
928 1024
929 930
930 1025
931 932
931 1018
932 933
933 985
933 986
934 935
934 997
934 998
935 936
936 1021
937 938
937 1010
938 939
939 1014
940 941
940 989
940 990
941 942
942 1026
943 1228
943 1229
944 1006
945 974
945 975
946 994
946 995
947 1009
948 1117
948 1118
949 976
949 977
950 1105
950 1106
951 1013
952 1000
952 1001
953 982
953 983
954 1222
954 1223
955 980
955 981
956 1017
957 998
957 999
958 1019
959 968
959 969
960 1020
961 1022
962 1209
962 1210
963 988
963 989
964 1120
964 1121
965 1027
966 992
966 993
967 968
967 1044
967 1045
968 969
969 1080
970 971
970 1071
971 972
972 1058
972 1059
973 974
973 1053
973 1054
974 975
975 1067
976 977
976 1073
977 978
978 1029
978 1030
979 980
979 1056
979 1057
980 981
981 1078
982 983
982 1037
982 1038
983 984
984 1077
985 986
985 1083
986 987
987 1034
987 1035
988 989
988 1085
989 990
990 1047
990 1048
991 992
991 1065
991 1066
992 993
993 1088
994 995
994 1069
995 996
996 1040
996 1041
997 998
997 1032
997 1033
998 999
999 1079
1000 1001
1000 1061
1000 1062
1001 1002
1002 1075
1003 1004
1003 1081
1004 1005
1005 1049
1005 1050
1006 1170
1006 1171
1007 1068
1008 1070
1009 1028
1009 1029
1010 1072
1011 1041
1011 1042
1012 1059
1012 1060
1013 1164
1013 1165
1014 1074
1015 1076
1016 1062
1016 1063
1017 1182
1017 1183
1018 1038
1018 1039
1019 1161
1019 1162
1020 1153
1020 1154
1021 1082
1022 1046
1022 1047
1023 1084
1024 1050
1024 1051
1025 1086
1026 1087
1027 1180
1027 1181
1028 1029
1028 1128
1029 1030
1030 1104
1030 1105
1031 1032
1031 1093
1031 1094
1032 1033
1033 1138
1034 1035
1034 1098
1034 1099
1035 1036
1036 1146
1037 1038
1037 1136
1038 1039
1039 1114
1039 1115
1040 1041
1040 1101
1040 1102
1041 1042
1042 1131
1043 1044
1043 1108
1043 1109
1044 1045
1045 1139
1046 1047
1046 1142
1047 1048
1048 1119
1048 1120
1049 1050
1049 1110
1049 1111
1050 1051
1051 1144
1052 1053
1052 1125
1053 1054
1054 1126
1055 1056
1055 1134
1056 1057
1057 1137
1058 1059
1058 1130
1059 1060
1060 1133
1061 1062
1061 1135
1062 1063
1063 1096
1063 1097
1064 1065
1064 1123
1064 1124
1065 1066
1066 1147
1067 1089
1067 1090
1068 1090
1068 1091
1069 1127
1070 1102
1070 1103
1071 1129
1072 1116
1072 1117
1073 1132
1074 1234
1074 1235
1075 1092
1075 1093
1076 1213
1076 1214
1077 1107
1077 1108
1078 1095
1078 1096
1079 1113
1079 1114
1080 1140
1081 1141
1082 1111
1082 1112
1083 1143
1084 1099
1084 1100
1085 1145
1086 1122
1086 1123
1087 1243
1087 1244
1088 1148
1089 1090
1089 1149
1089 1150
1090 1091
1091 1187
1092 1093
1092 1195
1093 1094
1094 1156
1094 1157
1095 1096
1095 1152
1095 1153
1096 1097
1097 1198
1098 1099
1098 1162
1098 1163
1099 1100
1100 1203
1101 1102
1101 1171
1101 1172
1102 1103
1103 1188
1104 1105
1104 1192
1105 1106
1106 1158
1106 1159
1107 1108
1107 1196
1108 1109
1109 1165
1109 1166
1110 1111
1110 1183
1110 1184
1111 1112
1112 1202
1113 1114
1113 1173
1113 1174
1114 1115
1115 1200
1116 1117
1116 1190
1117 1118
1118 1176
1118 1177
1119 1120
1119 1205
1120 1121
1121 1179
1121 1180
1122 1123
1122 1207
1123 1124
1124 1168
1124 1169
1125 1185
1126 1186
1127 1291
1127 1292
1128 1150
1128 1151
1129 1270
1129 1271
1130 1189
1131 1191
1132 1155
1132 1156
1133 1193
1134 1194
1135 1177
1135 1178
1136 1159
1136 1160
1137 1197
1138 1199
1139 1201
1140 1286
1140 1287
1141 1300
1141 1301
1142 1174
1142 1175
1143 1279
1143 1280
1144 1204
1145 1167
1145 1168
1146 1206
1147 1208
1148 1307
1148 1308
1149 1150
1149 1249
1150 1151
1151 1225
1151 1226
1152 1153
1152 1260
1153 1154
1154 1262
1155 1156
1155 1253
1156 1157
1157 1212
1157 1213
1158 1159
1158 1218
1158 1219
1159 1160
1160 1258
1161 1162
1161 1231
1161 1232
1162 1163
1163 1264
1164 1165
1164 1255
1165 1166
1166 1221
1166 1222
1167 1168
1167 1266
1168 1169
1169 1242
1169 1243
1170 1171
1170 1248
1171 1172
1172 1251
1173 1174
1173 1261
1174 1175
1175 1246
1175 1247
1176 1177
1176 1236
1176 1237
1177 1178
1178 1256
1179 1180
1179 1239
1179 1240
1180 1181
1181 1269
1182 1183
1182 1216
1182 1217
1183 1184
1184 1263
1185 1227
1185 1228
1186 1353
1186 1354
1187 1250
1188 1224
1188 1225
1189 1455
1189 1456
1190 1252
1191 1237
1191 1238
1192 1254
1193 1219
1193 1220
1194 1233
1194 1234
1195 1257
1196 1259
1197 1463
1197 1464
1198 1215
1198 1216
1199 1359
1199 1360
1200 1230
1200 1231
1201 1347
1201 1348
1202 1245
1202 1246
1203 1265
1204 1210
1204 1211
1205 1267
1206 1240
1206 1241
1207 1268
1208 1475
1208 1476
1209 1210
1209 1301
1209 1302
1210 1211
1211 1327
1212 1213
1212 1318
1213 1214
1214 1276
1214 1277
1215 1216
1215 1321
1216 1217
1217 1274
1217 1275
1218 1219
1218 1271
1218 1272
1219 1220
1220 1314
1221 1222
1221 1320
1222 1223
1223 1285
1223 1286
1224 1225
1224 1288
1224 1289
1225 1226
1226 1312
1227 1228
1227 1309
1228 1229
1229 1294
1229 1295
1230 1231
1230 1322
1231 1232
1232 1283
1232 1284
1233 1234
1233 1316
1234 1235
1235 1297
1235 1298
1236 1237
1236 1292
1236 1293
1237 1238
1238 1313
1239 1240
1239 1280
1239 1281
1240 1241
1241 1328
1242 1243
1242 1329
1243 1244
1244 1306
1244 1307
1245 1246
1245 1303
1245 1304
1246 1247
1247 1325
1248 1310
1249 1295
1249 1296
1250 1394
1250 1395
1251 1311
1252 1421
1252 1422
1253 1289
1253 1290
1254 1406
1254 1407
1255 1315
1256 1317
1257 1273
1257 1274
1258 1319
1259 1282
1259 1283
1260 1298
1260 1299
1261 1277
1261 1278
1262 1323
1263 1324
1264 1326
1265 1392
1265 1393
1266 1304
1266 1305
1267 1424
1267 1425
1268 1413
1268 1414
1269 1330
1270 1271
1270 1332
1270 1333
1271 1272
1272 1373
1273 1274
1273 1375
1274 1275
1275 1358
1275 1359
1276 1277
1276 1337
1276 1338
1277 1278
1278 1382
1279 1280
1279 1350
1279 1351
1280 1281
1281 1387
1282 1283
1282 1377
1283 1284
1284 1346
1284 1347
1285 1286
1285 1379
1286 1287
1287 1384
1288 1289
1288 1371
1289 1290
1290 1335
1290 1336
1291 1292
1291 1370
1292 1293
1293 1372
1294 1295
1294 1368
1295 1296
1296 1369
1297 1298
1297 1355
1297 1356
1298 1299
1299 1380
1300 1301
1300 1362
1300 1363
1301 1302
1302 1386
1303 1304
1303 1385
1304 1305
1305 1344
1305 1345
1306 1307
1306 1364
1306 1365
1307 1308
1308 1390
1309 1367
1310 1352
1310 1353
1311 1479
1311 1480
1312 1331
1312 1332
1313 1334
1313 1335
1314 1340
1314 1341
1315 1341
1315 1342
1316 1374
1317 1356
1317 1357
1318 1376
1319 1338
1319 1339
1320 1378
1321 1381
1322 1383
1323 1361
1323 1362
1324 1488
1324 1489
1325 1349
1325 1350
1326 1470
1326 1471
1327 1343
1327 1344
1328 1388
1329 1389
1330 1365
1330 1366
1331 1332
1331 1431
1332 1333
1333 1395
1333 1396
1334 1335
1334 1397
1334 1398
1335 1336
1336 1433
1337 1338
1337 1407
1337 1408
1338 1339
1339 1437
1340 1341
1340 1409
1340 1410
1341 1342
1342 1435
1343 1344
1343 1412
1343 1413
1344 1345
1345 1447
1346 1347
1346 1442
1347 1348
1348 1391
1348 1392
1349 1350
1349 1445
1350 1351
1351 1416
1351 1417
1352 1353
1352 1428
1353 1354
1354 1400
1354 1401
1355 1356
1355 1422
1355 1423
1356 1357
1357 1436
1358 1359
1358 1440
1359 1360
1360 1418
1360 1419
1361 1362
1361 1444
1362 1363
1363 1404
1363 1405
1364 1365
1364 1425
1364 1426
1365 1366
1366 1449
1367 1536
1367 1537
1368 1427
1369 1429
1370 1430
1371 1401
1371 1402
1372 1432
1373 1434
1374 1539
1374 1540
1375 1398
1375 1399
1376 1515
1376 1516
1377 1410
1377 1411
1378 1527
1378 1528
1379 1438
1380 1439
1381 1403
1381 1404
1382 1441
1383 1415
1383 1416
1384 1443
1385 1419
1385 1420
1386 1446
1387 1448
1388 1519
1388 1520
1389 1548
1389 1549
1390 1450
1391 1392
1391 1451
1391 1452
1392 1393
1393 1507
1394 1395
1394 1491
1395 1396
1396 1454
1396 1455
1397 1398
1397 1495
1398 1399
1399 1485
1399 1486
1400 1401
1400 1457
1400 1458
1401 1402
1402 1492
1403 1404
1403 1500
1404 1405
1405 1487
1405 1488
1406 1407
1406 1461
1406 1462
1407 1408
1408 1499
1409 1410
1409 1496
1410 1411
1411 1467
1411 1468
1412 1413
1412 1508
1413 1414
1414 1509
1415 1416
1415 1502
1416 1417
1417 1469
1417 1470
1418 1419
1418 1481
1418 1482
1419 1420
1420 1505
1421 1422
1421 1494
1422 1423
1423 1498
1424 1425
1424 1473
1424 1474
1425 1426
1426 1510
1427 1712
1427 1713
1428 1490
1429 1458
1429 1459
1430 1478
1430 1479
1431 1493
1432 1601
1432 1602
1433 1460
1433 1461
1434 1589
1434 1590
1435 1497
1436 1484
1436 1485
1437 1466
1437 1467
1438 1706
1438 1707
1439 1464
1439 1465
1440 1501
1441 1482
1441 1483
1442 1503
1443 1452
1443 1453
1444 1504
1445 1506
1446 1693
1446 1694
1447 1472
1447 1473
1448 1604
1448 1605
1449 1511
1450 1476
1450 1477
1451 1452
1451 1528
1451 1529
1452 1453
1453 1564
1454 1455
1454 1555
1455 1456
1456 1542
1456 1543
1457 1458
1457 1537
1457 1538
1458 1459
1459 1551
1460 1461
1460 1557
1461 1462
1462 1513
1462 1514
1463 1464
1463 1540
1463 1541
1464 1465
1465 1562
1466 1467
1466 1521
1466 1522
1467 1468
1468 1561
1469 1470
1469 1567
1470 1471
1471 1518
1471 1519
1472 1473
1472 1569
1473 1474
1474 1531
1474 1532
1475 1476
1475 1549
1475 1550
1476 1477
1477 1572
1478 1479
1478 1553
1479 1480
1480 1524
1480 1525
1481 1482
1481 1516
1481 1517
1482 1483
1483 1563
1484 1485
1484 1545
1484 1546
1485 1486
1486 1559
1487 1488
1487 1565
1488 1489
1489 1533
1489 1534
1490 1654
1490 1655
1491 1552
1492 1554
1493 1512
1493 1513
1494 1556
1495 1525
1495 1526
1496 1543
1496 1544
1497 1648
1497 1649
1498 1558
1499 1560
1500 1546
1500 1547
1501 1666
1501 1667
1502 1522
1502 1523
1503 1645
1503 1646
1504 1637
1504 1638
1505 1566
1506 1530
1506 1531
1507 1568
1508 1534
1508 1535
1509 1570
1510 1571
1511 1664
1511 1665
1512 1513
1512 1612
1513 1514
1514 1588
1514 1589
1515 1516
1515 1577
1515 1578
1516 1517
1517 1622
1518 1519
1518 1582
1518 1583
1519 1520
1520 1630
1521 1522
1521 1620
1522 1523
1523 1598
1523 1599
1524 1525
1524 1585
1524 1586
1525 1526
1526 1615
1527 1528
1527 1592
1527 1593
1528 1529
1529 1623
1530 1531
1530 1626
1531 1532
1532 1603
1532 1604
1533 1534
1533 1594
1533 1595
1534 1535
1535 1628
1536 1537
1536 1609
1537 1538
1538 1610
1539 1540
1539 1618
1540 1541
1541 1621
1542 1543
1542 1614
1543 1544
1544 1617
1545 1546
1545 1619
1546 1547
1547 1580
1547 1581
1548 1549
1548 1607
1548 1608
1549 1550
1550 1631
1551 1573
1551 1574
1552 1574
1552 1575
1553 1611
1554 1586
1554 1587
1555 1613
1556 1600
1556 1601
1557 1616
1558 1718
1558 1719
1559 1576
1559 1577
1560 1697
1560 1698
1561 1591
1561 1592
1562 1579
1562 1580
1563 1597
1563 1598
1564 1624
1565 1625
1566 1595
1566 1596
1567 1627
1568 1583
1568 1584
1569 1629
1570 1606
1570 1607
1571 1727
1571 1728
1572 1632
1573 1574
1573 1633
1573 1634
1574 1575
1575 1671
1576 1577
1576 1679
1577 1578
1578 1640
1578 1641
1579 1580
1579 1636
1579 1637
1580 1581
1581 1682
1582 1583
1582 1646
1582 1647
1583 1584
1584 1687
1585 1586
1585 1655
1585 1656
1586 1587
1587 1672
1588 1589
1588 1676
1589 1590
1590 1642
1590 1643
1591 1592
1591 1680
1592 1593
1593 1649
1593 1650
1594 1595
1594 1667
1594 1668
1595 1596
1596 1686
1597 1598
1597 1657
1597 1658
1598 1599
1599 1684
1600 1601
1600 1674
1601 1602
1602 1660
1602 1661
1603 1604
1603 1689
1604 1605
1605 1663
1605 1664
1606 1607
1606 1691
1607 1608
1608 1652
1608 1653
1609 1669
1610 1670
1611 1775
1611 1776
1612 1634
1612 1635
1613 1754
1613 1755
1614 1673
1615 1675
1616 1639
1616 1640
1617 1677
1618 1678
1619 1661
1619 1662
1620 1643
1620 1644
1621 1681
1622 1683
1623 1685
1624 1770
1624 1771
1625 1784
1625 1785
1626 1658
1626 1659
1627 1763
1627 1764
1628 1688
1629 1651
1629 1652
1630 1690
1631 1692
1632 1791
1632 1792
1633 1634
1633 1733
1634 1635
1635 1709
1635 1710
1636 1637
1636 1744
1637 1638
1638 1746
1639 1640
1639 1737
1640 1641
1641 1696
1641 1697
1642 1643
1642 1702
1642 1703
1643 1644
1644 1742
1645 1646
1645 1715
1645 1716
1646 1647
1647 1748
1648 1649
1648 1739
1649 1650
1650 1705
1650 1706
1651 1652
1651 1750
1652 1653
1653 1726
1653 1727
1654 1655
1654 1732
1655 1656
1656 1735
1657 1658
1657 1745
1658 1659
1659 1730
1659 1731
1660 1661
1660 1720
1660 1721
1661 1662
1662 1740
1663 1664
1663 1723
1663 1724
1664 1665
1665 1753
1666 1667
1666 1700
1666 1701
1667 1668
1668 1747
1669 1711
1669 1712
1670 1837
1670 1838
1671 1734
1672 1708
1672 1709
1673 1939
1673 1940
1674 1736
1675 1721
1675 1722
1676 1738
1677 1703
1677 1704
1678 1717
1678 1718
1679 1741
1680 1743
1681 1947
1681 1948
1682 1699
1682 1700
1683 1843
1683 1844
1684 1714
1684 1715
1685 1831
1685 1832
1686 1729
1686 1730
1687 1749
1688 1694
1688 1695
1689 1751
1690 1724
1690 1725
1691 1752
1692 1959
1692 1960
1693 1694
1693 1785
1693 1786
1694 1695
1695 1811
1696 1697
1696 1802
1697 1698
1698 1760
1698 1761
1699 1700
1699 1805
1700 1701
1701 1758
1701 1759
1702 1703
1702 1755
1702 1756
1703 1704
1704 1798
1705 1706
1705 1804
1706 1707
1707 1769
1707 1770
1708 1709
1708 1772
1708 1773
1709 1710
1710 1796
1711 1712
1711 1793
1712 1713
1713 1778
1713 1779
1714 1715
1714 1806
1715 1716
1716 1767
1716 1768
1717 1718
1717 1800
1718 1719
1719 1781
1719 1782
1720 1721
1720 1776
1720 1777
1721 1722
1722 1797
1723 1724
1723 1764
1723 1765
1724 1725
1725 1812
1726 1727
1726 1813
1727 1728
1728 1790
1728 1791
1729 1730
1729 1787
1729 1788
1730 1731
1731 1809
1732 1794
1733 1779
1733 1780
1734 1878
1734 1879
1735 1795
1736 1905
1736 1906
1737 1773
1737 1774
1738 1890
1738 1891
1739 1799
1740 1801
1741 1757
1741 1758
1742 1803
1743 1766
1743 1767
1744 1782
1744 1783
1745 1761
1745 1762
1746 1807
1747 1808
1748 1810
1749 1876
1749 1877
1750 1788
1750 1789
1751 1908
1751 1909
1752 1897
1752 1898
1753 1814
1754 1755
1754 1816
1754 1817
1755 1756
1756 1857
1757 1758
1757 1859
1758 1759
1759 1842
1759 1843
1760 1761
1760 1821
1760 1822
1761 1762
1762 1866
1763 1764
1763 1834
1763 1835
1764 1765
1765 1871
1766 1767
1766 1861
1767 1768
1768 1830
1768 1831
1769 1770
1769 1863
1770 1771
1771 1868
1772 1773
1772 1855
1773 1774
1774 1819
1774 1820
1775 1776
1775 1854
1776 1777
1777 1856
1778 1779
1778 1852
1779 1780
1780 1853
1781 1782
1781 1839
1781 1840
1782 1783
1783 1864
1784 1785
1784 1846
1784 1847
1785 1786
1786 1870
1787 1788
1787 1869
1788 1789
1789 1828
1789 1829
1790 1791
1790 1848
1790 1849
1791 1792
1792 1874
1793 1851
1794 1836
1794 1837
1795 1963
1795 1964
1796 1815
1796 1816
1797 1818
1797 1819
1798 1824
1798 1825
1799 1825
1799 1826
1800 1858
1801 1840
1801 1841
1802 1860
1803 1822
1803 1823
1804 1862
1805 1865
1806 1867
1807 1845
1807 1846
1808 1972
1808 1973
1809 1833
1809 1834
1810 1954
1810 1955
1811 1827
1811 1828
1812 1872
1813 1873
1814 1849
1814 1850
1815 1816
1815 1915
1816 1817
1817 1879
1817 1880
1818 1819
1818 1881
1818 1882
1819 1820
1820 1917
1821 1822
1821 1891
1821 1892
1822 1823
1823 1921
1824 1825
1824 1893
1824 1894
1825 1826
1826 1919
1827 1828
1827 1896
1827 1897
1828 1829
1829 1931
1830 1831
1830 1926
1831 1832
1832 1875
1832 1876
1833 1834
1833 1929
1834 1835
1835 1900
1835 1901
1836 1837
1836 1912
1837 1838
1838 1884
1838 1885
1839 1840
1839 1906
1839 1907
1840 1841
1841 1920
1842 1843
1842 1924
1843 1844
1844 1902
1844 1903
1845 1846
1845 1928
1846 1847
1847 1888
1847 1889
1848 1849
1848 1909
1848 1910
1849 1850
1850 1933
1851 2020
1851 2021
1852 1911
1853 1913
1854 1914
1855 1885
1855 1886
1856 1916
1857 1918
1858 2023
1858 2024
1859 1882
1859 1883
1860 1999
1860 2000
1861 1894
1861 1895
1862 2011
1862 2012
1863 1922
1864 1923
1865 1887
1865 1888
1866 1925
1867 1899
1867 1900
1868 1927
1869 1903
1869 1904
1870 1930
1871 1932
1872 2003
1872 2004
1873 2032
1873 2033
1874 1934
1875 1876
1875 1935
1875 1936
1876 1877
1877 1991
1878 1879
1878 1975
1879 1880
1880 1938
1880 1939
1881 1882
1881 1979
1882 1883
1883 1969
1883 1970
1884 1885
1884 1941
1884 1942
1885 1886
1886 1976
1887 1888
1887 1984
1888 1889
1889 1971
1889 1972
1890 1891
1890 1945
1890 1946
1891 1892
1892 1983
1893 1894
1893 1980
1894 1895
1895 1951
1895 1952
1896 1897
1896 1992
1897 1898
1898 1993
1899 1900
1899 1986
1900 1901
1901 1953
1901 1954
1902 1903
1902 1965
1902 1966
1903 1904
1904 1989
1905 1906
1905 1978
1906 1907
1907 1982
1908 1909
1908 1957
1908 1958
1909 1910
1910 1994
1911 2196
1911 2197
1912 1974
1913 1942
1913 1943
1914 1962
1914 1963
1915 1977
1916 2085
1916 2086
1917 1944
1917 1945
1918 2073
1918 2074
1919 1981
1920 1968
1920 1969
1921 1950
1921 1951
1922 2190
1922 2191
1923 1948
1923 1949
1924 1985
1925 1966
1925 1967
1926 1987
1927 1936
1927 1937
1928 1988
1929 1990
1930 2177
1930 2178
1931 1956
1931 1957
1932 2088
1932 2089
1933 1995
1934 1960
1934 1961
1935 1936
1935 2012
1935 2013
1936 1937
1937 2048
1938 1939
1938 2039
1939 1940
1940 2026
1940 2027
1941 1942
1941 2021
1941 2022
1942 1943
1943 2035
1944 1945
1944 2041
1945 1946
1946 1997
1946 1998
1947 1948
1947 2024
1947 2025
1948 1949
1949 2046
1950 1951
1950 2005
1950 2006
1951 1952
1952 2045
1953 1954
1953 2051
1954 1955
1955 2002
1955 2003
1956 1957
1956 2053
1957 1958
1958 2015
1958 2016
1959 1960
1959 2033
1959 2034
1960 1961
1961 2056
1962 1963
1962 2037
1963 1964
1964 2008
1964 2009
1965 1966
1965 2000
1965 2001
1966 1967
1967 2047
1968 1969
1968 2029
1968 2030
1969 1970
1970 2043
1971 1972
1971 2049
1972 1973
1973 2017
1973 2018
1974 2138
1974 2139
1975 2036
1976 2038
1977 1996
1977 1997
1978 2040
1979 2009
1979 2010
1980 2027
1980 2028
1981 2132
1981 2133
1982 2042
1983 2044
1984 2030
1984 2031
1985 2150
1985 2151
1986 2006
1986 2007
1987 2129
1987 2130
1988 2121
1988 2122
1989 2050
1990 2014
1990 2015
1991 2052
1992 2018
1992 2019
1993 2054
1994 2055
1995 2148
1995 2149
1996 1997
1996 2096
1997 1998
1998 2072
1998 2073
1999 2000
1999 2061
1999 2062
2000 2001
2001 2106
2002 2003
2002 2066
2002 2067
2003 2004
2004 2114
2005 2006
2005 2104
2006 2007
2007 2082
2007 2083
2008 2009
2008 2069
2008 2070
2009 2010
2010 2099
2011 2012
2011 2076
2011 2077
2012 2013
2013 2107
2014 2015
2014 2110
2015 2016
2016 2087
2016 2088
2017 2018
2017 2078
2017 2079
2018 2019
2019 2112
2020 2021
2020 2093
2021 2022
2022 2094
2023 2024
2023 2102
2024 2025
2025 2105
2026 2027
2026 2098
2027 2028
2028 2101
2029 2030
2029 2103
2030 2031
2031 2064
2031 2065
2032 2033
2032 2091
2032 2092
2033 2034
2034 2115
2035 2057
2035 2058
2036 2058
2036 2059
2037 2095
2038 2070
2038 2071
2039 2097
2040 2084
2040 2085
2041 2100
2042 2202
2042 2203
2043 2060
2043 2061
2044 2181
2044 2182
2045 2075
2045 2076
2046 2063
2046 2064
2047 2081
2047 2082
2048 2108
2049 2109
2050 2079
2050 2080
2051 2111
2052 2067
2052 2068
2053 2113
2054 2090
2054 2091
2055 2211
2055 2212
2056 2116
2057 2058
2057 2117
2057 2118
2058 2059
2059 2155
2060 2061
2060 2163
2061 2062
2062 2124
2062 2125
2063 2064
2063 2120
2063 2121
2064 2065
2065 2166
2066 2067
2066 2130
2066 2131
2067 2068
2068 2171
2069 2070
2069 2139
2069 2140
2070 2071
2071 2156
2072 2073
2072 2160
2073 2074
2074 2126
2074 2127
2075 2076
2075 2164
2076 2077
2077 2133
2077 2134
2078 2079
2078 2151
2078 2152
2079 2080
2080 2170
2081 2082
2081 2141
2081 2142
2082 2083
2083 2168
2084 2085
2084 2158
2085 2086
2086 2144
2086 2145
2087 2088
2087 2173
2088 2089
2089 2147
2089 2148
2090 2091
2090 2175
2091 2092
2092 2136
2092 2137
2093 2153
2094 2154
2095 2259
2095 2260
2096 2118
2096 2119
2097 2238
2097 2239
2098 2157
2099 2159
2100 2123
2100 2124
2101 2161
2102 2162
2103 2145
2103 2146
2104 2127
2104 2128
2105 2165
2106 2167
2107 2169
2108 2254
2108 2255
2109 2268
2109 2269
2110 2142
2110 2143
2111 2247
2111 2248
2112 2172
2113 2135
2113 2136
2114 2174
2115 2176
2116 2275
2116 2276
2117 2118
2117 2217
2118 2119
2119 2193
2119 2194
2120 2121
2120 2228
2121 2122
2122 2230
2123 2124
2123 2221
2124 2125
2125 2180
2125 2181
2126 2127
2126 2186
2126 2187
2127 2128
2128 2226
2129 2130
2129 2199
2129 2200
2130 2131
2131 2232
2132 2133
2132 2223
2133 2134
2134 2189
2134 2190
2135 2136
2135 2234
2136 2137
2137 2210
2137 2211
2138 2139
2138 2216
2139 2140
2140 2219
2141 2142
2141 2229
2142 2143
2143 2214
2143 2215
2144 2145
2144 2204
2144 2205
2145 2146
2146 2224
2147 2148
2147 2207
2147 2208
2148 2149
2149 2237
2150 2151
2150 2184
2150 2185
2151 2152
2152 2231
2153 2195
2153 2196
2154 2321
2154 2322
2155 2218
2156 2192
2156 2193
2157 2423
2157 2424
2158 2220
2159 2205
2159 2206
2160 2222
2161 2187
2161 2188
2162 2201
2162 2202
2163 2225
2164 2227
2165 2431
2165 2432
2166 2183
2166 2184
2167 2327
2167 2328
2168 2198
2168 2199
2169 2315
2169 2316
2170 2213
2170 2214
2171 2233
2172 2178
2172 2179
2173 2235
2174 2208
2174 2209
2175 2236
2176 2443
2176 2444
2177 2178
2177 2269
2177 2270
2178 2179
2179 2295
2180 2181
2180 2286
2181 2182
2182 2244
2182 2245
2183 2184
2183 2289
2184 2185
2185 2242
2185 2243
2186 2187
2186 2239
2186 2240
2187 2188
2188 2282
2189 2190
2189 2288
2190 2191
2191 2253
2191 2254
2192 2193
2192 2256
2192 2257
2193 2194
2194 2280
2195 2196
2195 2277
2196 2197
2197 2262
2197 2263
2198 2199
2198 2290
2199 2200
2200 2251
2200 2252
2201 2202
2201 2284
2202 2203
2203 2265
2203 2266
2204 2205
2204 2260
2204 2261
2205 2206
2206 2281
2207 2208
2207 2248
2207 2249
2208 2209
2209 2296
2210 2211
2210 2297
2211 2212
2212 2274
2212 2275
2213 2214
2213 2271
2213 2272
2214 2215
2215 2293
2216 2278
2217 2263
2217 2264
2218 2362
2218 2363
2219 2279
2220 2389
2220 2390
2221 2257
2221 2258
2222 2374
2222 2375
2223 2283
2224 2285
2225 2241
2225 2242
2226 2287
2227 2250
2227 2251
2228 2266
2228 2267
2229 2245
2229 2246
2230 2291
2231 2292
2232 2294
2233 2360
2233 2361
2234 2272
2234 2273
2235 2392
2235 2393
2236 2381
2236 2382
2237 2298
2238 2239
2238 2300
2238 2301
2239 2240
2240 2341
2241 2242
2241 2343
2242 2243
2243 2326
2243 2327
2244 2245
2244 2305
2244 2306
2245 2246
2246 2350
2247 2248
2247 2318
2247 2319
2248 2249
2249 2355
2250 2251
2250 2345
2251 2252
2252 2314
2252 2315
2253 2254
2253 2347
2254 2255
2255 2352
2256 2257
2256 2339
2257 2258
2258 2303
2258 2304
2259 2260
2259 2338
2260 2261
2261 2340
2262 2263
2262 2336
2263 2264
2264 2337
2265 2266
2265 2323
2265 2324
2266 2267
2267 2348
2268 2269
2268 2330
2268 2331
2269 2270
2270 2354
2271 2272
2271 2353
2272 2273
2273 2312
2273 2313
2274 2275
2274 2332
2274 2333
2275 2276
2276 2358
2277 2335
2278 2320
2278 2321
2279 2447
2279 2448
2280 2299
2280 2300
2281 2302
2281 2303
2282 2308
2282 2309
2283 2309
2283 2310
2284 2342
2285 2324
2285 2325
2286 2344
2287 2306
2287 2307
2288 2346
2289 2349
2290 2351
2291 2329
2291 2330
2292 2456
2292 2457
2293 2317
2293 2318
2294 2438
2294 2439
2295 2311
2295 2312
2296 2356
2297 2357
2298 2333
2298 2334
2299 2300
2299 2399
2300 2301
2301 2363
2301 2364
2302 2303
2302 2365
2302 2366
2303 2304
2304 2401
2305 2306
2305 2375
2305 2376
2306 2307
2307 2405
2308 2309
2308 2377
2308 2378
2309 2310
2310 2403
2311 2312
2311 2380
2311 2381
2312 2313
2313 2415
2314 2315
2314 2410
2315 2316
2316 2359
2316 2360
2317 2318
2317 2413
2318 2319
2319 2384
2319 2385
2320 2321
2320 2396
2321 2322
2322 2368
2322 2369
2323 2324
2323 2390
2323 2391
2324 2325
2325 2404
2326 2327
2326 2408
2327 2328
2328 2386
2328 2387
2329 2330
2329 2412
2330 2331
2331 2372
2331 2373
2332 2333
2332 2393
2332 2394
2333 2334
2334 2417
2335 2504
2335 2505
2336 2395
2337 2397
2338 2398
2339 2369
2339 2370
2340 2400
2341 2402
2342 2507
2342 2508
2343 2366
2343 2367
2344 2483
2344 2484
2345 2378
2345 2379
2346 2495
2346 2496
2347 2406
2348 2407
2349 2371
2349 2372
2350 2409
2351 2383
2351 2384
2352 2411
2353 2387
2353 2388
2354 2414
2355 2416
2356 2487
2356 2488
2357 2516
2357 2517
2358 2418
2359 2360
2359 2419
2359 2420
2360 2361
2361 2475
2362 2363
2362 2459
2363 2364
2364 2422
2364 2423
2365 2366
2365 2463
2366 2367
2367 2453
2367 2454
2368 2369
2368 2425
2368 2426
2369 2370
2370 2460
2371 2372
2371 2468
2372 2373
2373 2455
2373 2456
2374 2375
2374 2429
2374 2430
2375 2376
2376 2467
2377 2378
2377 2464
2378 2379
2379 2435
2379 2436
2380 2381
2380 2476
2381 2382
2382 2477
2383 2384
2383 2470
2384 2385
2385 2437
2385 2438
2386 2387
2386 2449
2386 2450
2387 2388
2388 2473
2389 2390
2389 2462
2390 2391
2391 2466
2392 2393
2392 2441
2392 2442
2393 2394
2394 2478
2395 2542
2396 2458
2397 2426
2397 2427
2398 2446
2398 2447
2399 2461
2400 2554
2401 2428
2401 2429
2402 2558
2403 2465
2404 2452
2404 2453
2405 2434
2405 2435
2406 2570
2407 2432
2407 2433
2408 2469
2409 2450
2409 2451
2410 2471
2411 2420
2411 2421
2412 2472
2413 2474
2414 2589
2415 2440
2415 2441
2416 2593
2417 2479
2418 2444
2418 2445
2419 2420
2419 2496
2419 2497
2420 2421
2421 2532
2422 2423
2422 2523
2423 2424
2424 2510
2424 2511
2425 2426
2425 2505
2425 2506
2426 2427
2427 2519
2428 2429
2428 2525
2429 2430
2430 2481
2430 2482
2431 2432
2431 2508
2431 2509
2432 2433
2433 2530
2434 2435
2434 2489
2434 2490
2435 2436
2436 2529
2437 2438
2437 2535
2438 2439
2439 2486
2439 2487
2440 2441
2440 2537
2441 2442
2442 2499
2442 2500
2443 2444
2443 2517
2443 2518
2444 2445
2445 2540
2446 2447
2446 2521
2447 2448
2448 2492
2448 2493
2449 2450
2449 2484
2449 2485
2450 2451
2451 2531
2452 2453
2452 2513
2452 2514
2453 2454
2454 2527
2455 2456
2455 2533
2456 2457
2457 2501
2457 2502
2458 2543
2459 2520
2460 2522
2461 2480
2461 2481
2462 2524
2463 2493
2463 2494
2464 2511
2464 2512
2465 2560
2466 2526
2467 2528
2468 2514
2468 2515
2469 2574
2470 2490
2470 2491
2471 2578
2472 2581
2473 2534
2474 2498
2474 2499
2475 2536
2476 2502
2476 2503
2477 2538
2478 2539
2479 2598
2480 2481
2480 2550
2481 2482
2482 2557
2483 2484
2483 2565
2484 2485
2485 2575
2486 2487
2486 2587
2487 2488
2488 2594
2489 2490
2489 2567
2490 2491
2491 2577
2492 2493
2492 2548
2493 2494
2494 2555
2495 2496
2495 2569
2496 2497
2497 2579
2498 2499
2498 2585
2499 2500
2500 2592
2501 2502
2501 2583
2502 2503
2503 2590
2504 2505
2504 2541
2505 2506
2506 2544
2507 2508
2507 2561
2508 2509
2509 2571
2510 2511
2510 2552
2511 2512
2512 2559
2513 2514
2513 2563
2514 2515
2515 2573
2516 2517
2516 2596
2517 2518
2518 2599
2519 2545
2520 2546
2521 2547
2522 2549
2523 2551
2524 2553
2525 2556
2526 2562
2527 2564
2528 2566
2529 2568
2530 2572
2531 2576
2532 2580
2533 2582
2534 2584
2535 2586
2536 2588
2537 2591
2538 2595
2539 2597
2540 2600
